DIMENSION: 10
EDGE_WEIGHT_TYPE: EXPLICIT
EDGE_WEIGHT_FORMAT: FULL_MATRIX
EDGE_WEIGHT_SECTION:
32767 93 32767 54 24 89 32767 48 23 56 
93 32767 11 32767 32767 2 15 32767 99 27 
32767 11 32767 28 33 38 87 22 32767 87 
54 32767 28 32767 86 70 20 32767 32767 32767 
24 32767 33 86 32767 88 35 2 21 73 
89 2 38 70 88 32767 5 32767 42 55 
32767 15 87 20 35 5 32767 64 59 55 
48 32767 22 32767 2 32767 64 32767 62 32767 
23 99 32767 32767 21 42 59 62 32767 33 
56 27 87 32767 73 55 55 32767 33 32767 
EOF